
Gurobi 9.5.2 (win64) logging started Mon Mar 27 20:25:46 2023

Set parameter LogFile to value "2023-03-27_20hr-25min-09sec/Nodes10_Arcs25_LocNodes8/Formulation-2Instance-4.log"
Set parameter TimeLimit to value 600
Set parameter IntFeasTol to value 1e-09
Set parameter DualReductions to value 0
Set parameter NonConvex to value 2
Gurobi Optimizer version 9.5.2 build v9.5.2rc0 (win64)
Thread count: 4 physical cores, 8 logical processors, using up to 8 threads
Optimize a model with 54 rows, 96 columns and 222 nonzeros
Model fingerprint: 0x25423550
Model has 35 quadratic objective terms
Model has 35 SOS constraints
Variable types: 88 continuous, 8 integer (8 binary)
Coefficient statistics:
  Matrix range     [8e-02, 2e+02]
  Objective range  [8e-02, 1e+03]
  QObjective range [2e-01, 8e+00]
  Bounds range     [1e+00, 1e+00]
  RHS range        [8e-02, 1e+03]
Presolve time: 0.00s
Presolved: 54 rows, 96 columns, 222 nonzeros
Presolved model has 35 SOS constraint(s)
Presolved model has 35 quadratic objective terms
Variable types: 88 continuous, 8 integer (8 binary)

Root relaxation: objective 1.206494e+05, 127 iterations, 0.00 seconds (0.00 work units)

    Nodes    |    Current Node    |     Objective Bounds      |     Work
 Expl Unexpl |  Obj  Depth IntInf | Incumbent    BestBd   Gap | It/Node Time

     0     0 120649.397    0    7          - 120649.397      -     -    0s
H    0     0                    116059.54688 120649.397  3.95%     -    0s
H    0     0                    120413.43306 120617.668  0.17%     -    0s
H    0     0                    120415.06093 120617.668  0.17%     -    0s

Cutting planes:
  Flow cover: 1

Explored 1 nodes (127 simplex iterations) in 0.02 seconds (0.00 work units)
Thread count was 8 (of 8 available processors)

Solution count 2: 120415 116060 

Optimal solution found (tolerance 1.00e-04)
Best objective 1.204150609279e+05, best bound 1.204162165645e+05, gap 0.0010%

User-callback calls 147, time in user-callback 0.00 sec
